param N = 12;

set Meals := Brunch Dinner;
set Restaurants := 2 7 10;
set Destinations := 0 1 3 4 5 6 8 9 11;
param starting_location = 11;

param travel_time
    :   0   1   2   3   4   5   6   7   8   9   10  11 :=
    0   0	40	40	40	40	40	40	40	40	40	40	80
    1   30	0	4	1	2	5	5	4	4	4	14	50
    2   28	3	0	3	3	6	3	5	1	2	14	50
    3   28	1	4	0	2	6	5	5	4	4	14	50
    4   28	2	4	2	0	6	6	5	4	3	12	50
    5   35	8	8	8	7	0	8	4	8	9	14	50
    6   30	5	3	5	6	7	0	7	3	5	18	55
    7   35	8	7	8	6	3	9	0	8	9	14	50
    8   28	3	1	3	4	6	3	6	0	3	16	50
    9   28	3	4	3	4	8	5	7	3	0	14	50
    10  35	14	16	16	14	16	18	14	16	16	0	60
    11  70	50	50	50	50	45	55	45	50	50	55	0;

param duration :=
    0 120
    1 60
    2 60
    3 60
    4 180
    5 120
    6 60
    7 180
    8 60
    9 180
    10 60
    11 0;

param happiness := 
    0 5
    1 3.333333333
    2 7.666666667
    3 6
    4 2.333333333
    5 6
    6 6.333333333
    7 6
    8 8
    9 4.333333333
    10 8
    11 0;

param anger_coef := 0;
param total_time := 660;  # 11 hours. We leave Mudd at 8 a.m. and get back at 7 p.m.
param meal_time :=
    Brunch 180  # Brunch at 11 a.m.
    Dinner 540; # Dinner at 5 p.m.
param M := 9999;
